# 3d Leonard Jones Potential

units lj
atom_style atomic
lattice bcc 0.2
region box block 0 10 0 10 0 10
create_box 2 box
create_atoms 2 box

mass 1 1.0
velocity all create 0.1 87287
pair_style lj/cut 2.5
pair_coeff 1 1 1.0 1.0 2.5
neighbor 0.1 bin
neigh_modify every 10 delay 0 check no

fix 1 all nvt temp 0.05 0.05 1.0
dump id all atoms 50 dump.lammpstrj
thermo 1000
run 100000